branches/new_interfaces/knapsacks/25.txt
25
400.0
28.0 85.0
100.0 24.0
59.0 63.0
95.0 93.0
20.0 79.0
33.0 86.0
91.0 18.0
31.0 94.0
38.0 68.0
67.0 51.0
78.0 63.0
63.0 92.0
63.0 100.0
32.0 38.0
43.0 68.0
74.0 33.0
28.0 19.0
22.0 64.0
49.0 21.0
15.0 62.0
20.0 96.0
84.0 20.0
100.0 33.0
85.0 78.0
16.0 56.0
