branches/new_interfaces/knapsacks/25.opt.txt
for a total value of 950 and a total weight of 392
0 4 5 7 8 11 12 14 17 19 20 24
